StudentsNr = 10;
InstructorsNr = 47;
DaysNr = 1;
SlotsPerDay = 40;
AvailabilitySlotsLenght = 40;
RoomNr = 1;
ProgrammNr = 2;
DegreeNr = 1;
RolesNr = 3;
CoursesNr = 10;
InstructorsProgramm = [{1}, {2}, {2}, {1}, {1, 2}, {1}, {2}, {1}, {1, 2}, {1}, {1}, {1}, {1, 2}, {1, 2}, {2}, {2}, {1}, {2}, {1, 2}, {1}, {1}, {2}, {1}, {2}, {1, 2}, {2}, {2}, {2}, {2}, {1}, {2}, {1}, {2}, {1}, {1}, {1}, {1}, {2}, {1}, {2}, {1, 2}, {2}, {2}, {1}, {1}, {1}, {1}];
InstructorRolesPerProgramm = [|{4, 6, 8, 10, 13, 21, 36}, {4, 5, 6, 10, 14, 17, 19, 20, 23, 36, 47}, {1, 9, 12, 13, 14, 17, 23, 35}|{2, 3, 7, 13, 15, 22, 26, 27, 31, 33, 40}, {3, 5, 7, 14, 15, 19, 22, 33, 38, 40}, {3, 9, 13, 14, 18, 22, 27, 28, 29, 31, 33, 42}|];
InstructorsAvailability = [|1, |1, |0, |0, |1, |1, |0, |0, |1, |1, |0, |1, |0, |1, |1, |0, |1, |0, |0, |1, |1, |1, |0, |0, |0, |1, |1, |1, |0, |1, |0, |1, |1, |0, |1, |0, |0, |0, |0, |1, |0, |0, |1, |0, |1, |0, |1|];
StudentsProgramm = [2, 2, 1, 2, 2, 2, 1, 2, 1, 2];
StudentsDegree = [1, 1, 1, 1, 1, 1, 1, 1, 1, 1];
StudentsSupervisorId = [41, 16, 23, 31, 42, 40, 41, 18, 14, 7];
StudentsCourseIds = [{1, 2, 3, 4, 5, 7, 8, 9, 10}, {1, 2, 3, 4, 5, 7, 8, 9, 10}, {1, 2, 3, 4, 5, 6, 8, 9, 10}, {1, 2, 4, 5, 6, 7, 8, 9, 10}, {1, 2, 3, 4, 5, 6, 7, 9, 10}, {1, 2, 3, 4, 5, 6, 7, 8, 10}, {1, 2, 3, 4, 5, 6, 7, 8, 9}, {1, 2, 3, 4, 5, 6, 7, 8, 10}, {1, 2, 3, 4, 5, 6, 7, 8, 9}, {1, 2, 3, 4, 5, 6, 8, 9, 10}];
StudentsAvailability = [|1, |0, |1, |0, |0, |0, |1, |1, |1, |0|];
TheoryticalMinCard = [0, 0, 0, 0, 0, 0, 0, 0, 0, 0];
CoursesInstructorIds = [{3, 5, 6, 7, 8, 9, 11, 13, 15, 16, 22, 25, 27, 28, 30, 32, 34, 35, 38, 39, 45}, {5, 7, 10, 11, 12, 25, 29, 31, 35, 37, 41, 43, 44, 45, 46}, {3, 6, 20, 22, 23, 25, 26, 27, 39, 40, 43}, {1, 2, 4, 7, 8, 11, 12, 17, 19, 22, 23, 25, 30, 35, 37, 41, 43, 44, 45, 46}, {1, 4, 6, 7, 9, 10, 14, 19, 20, 21, 22, 23, 24, 25, 27, 28, 29, 30, 31, 32, 34, 35, 37, 38, 39, 40, 43, 44, 46, 47}, {3, 6, 10, 11, 12, 13, 14, 16, 18, 20, 25, 26, 27, 30, 32, 33, 34, 35, 37, 38, 39, 42, 45, 46, 47}, {2, 3, 7, 11, 12, 14, 16, 17, 18, 20, 21, 22, 23, 24, 28, 30, 32, 33, 35, 36, 37, 39, 42, 45, 46, 47}, {3, 4, 5, 8, 9, 10, 14, 19, 20, 21, 23, 25, 26, 30, 33, 34, 35, 41, 44}, {2, 4, 6, 9, 12, 13, 14, 15, 18, 20, 27, 29, 30, 31, 35, 37, 41, 43, 44}, {1, 2, 6, 9, 10, 11, 13, 14, 16, 17, 21, 23, 24, 25, 27, 28, 29, 31, 33, 34, 40, 42, 43, 44, 45, 46}];
RolesDemands = [1, 10, 5];
RolesContinuity = [2, 1];
ExamLen = [2, 2, 2, 2, 2, 2, 2, 2, 2, 2];
LunchTsMinLen = 1;
LunchStarts = [10..29];
SupervisorAvailable = 5;
OptimalLunchLenght = [1, 2];
OptimalStartTs = [0, 0];
OptimalFinishTs = [0, 40];
MinimizeRooms = 500;
RolesSoftContinuity = [|1, 2, 3|0, 0, 2|];
SameDegreeInRoom = 10;
Mergeability = 0;
